data;

param w := 31;
param n := 19;
param min_h := 31;
param max_h := 46;

set BLOCKS := 1 2 3 4 5 6 7 8 9 10 11 12 13 14 15 16 17 18 19 ;

param:	width	height :=
	1	12	31
	2	3	31
	3	3	22
	4	4	13
	5	3	14
	6	3	13
	7	3	12
	8	3	11
	9	4	8
	10	3	10
	11	4	7
	12	3	9
	13	3	8
	14	3	7
	15	3	6
	16	3	5
	17	3	4
	18	4	3
	19	3	3;